NAME 
ROWS
 N  OBJ
 L  R0      
 E  R1      
 E  R2      
 E  R3      
 E  R4      
 E  R5      
 E  R6      
 E  R7      
 E  R8      
 E  R9      
 E  R10     
 E  R11     
 E  R12     
 E  R13     
 E  R14     
 E  R15     
 E  R16     
 E  R17     
 E  R18     
 E  R19     
 E  R20     
COLUMNS
    MARKER    'MARKER'                 'INTORG'
    I0(8)     OBJ       -117
    I0(8)     R0        -52
    I0(8)     R1        12
    I0(8)     R6        17
    I0(8)     R9        16
    I0(8)     R10       -1
    I0(8)     R11       4
    I0(8)     R12       17
    I0(8)     R20       1
    I1(9)     OBJ       -15
    I1(9)     R0        41
    I1(9)     R1        1
    I1(9)     R2        12
    I1(9)     R3        3
    I1(9)     R6        18
    I1(9)     R7        17
    I1(9)     R8        8
    I1(9)     R10       12
    I1(9)     R20       1
    I2(13)    OBJ       31
    I2(13)    R0        5
    I2(13)    R1        -1
    I2(13)    R2        15
    I2(13)    R3        6
    I2(13)    R4        12
    I2(13)    R5        3
    I2(13)    R6        3
    I2(13)    R8        7
    I2(13)    R9        19
    I2(13)    R10       12
    I2(13)    R11       15
    I2(13)    R12       17
    I2(13)    R20       1
    I3(13)    OBJ       -200
    I3(13)    R0        -12
    I3(13)    R1        13
    I3(13)    R2        17
    I3(13)    R4        17
    I3(13)    R5        8
    I3(13)    R6        6
    I3(13)    R7        5
    I3(13)    R8        1
    I3(13)    R9        2
    I3(13)    R10       19
    I3(13)    R11       13
    I3(13)    R12       12
    I3(13)    R20       1
    I4(9)     OBJ       -22
    I4(9)     R0        -5
    I4(9)     R2        13
    I4(9)     R4        13
    I4(9)     R5        10
    I4(9)     R6        7
    I4(9)     R7        1
    I4(9)     R9        11
    I4(9)     R11       1
    I4(9)     R20       1
    I5(9)     OBJ       -179
    I5(9)     R0        99
    I5(9)     R1        7
    I5(9)     R2        14
    I5(9)     R5        -1
    I5(9)     R6        9
    I5(9)     R7        6
    I5(9)     R11       4
    I5(9)     R12       19
    I5(9)     R20       1
    I6(9)     OBJ       133
    I6(9)     R0        125
    I6(9)     R1        8
    I6(9)     R3        6
    I6(9)     R6        -1
    I6(9)     R7        14
    I6(9)     R10       12
    I6(9)     R11       14
    I6(9)     R12       9
    I6(9)     R20       1
    I7(9)     OBJ       96
    I7(9)     R0        -45
    I7(9)     R2        4
    I7(9)     R3        10
    I7(9)     R4        19
    I7(9)     R5        15
    I7(9)     R8        9
    I7(9)     R9        19
    I7(9)     R12       9
    I7(9)     R20       1
    I8(8)     OBJ       18
    I8(8)     R0        -191
    I8(8)     R1        6
    I8(8)     R2        10
    I8(8)     R3        11
    I8(8)     R4        18
    I8(8)     R10       8
    I8(8)     R11       5
    I8(8)     R20       1
    I9(10)    OBJ       -138
    I9(10)    R0        152
    I9(10)    R2        13
    I9(10)    R4        5
    I9(10)    R6        3
    I9(10)    R7        7
    I9(10)    R8        17
    I9(10)    R9        6
    I9(10)    R11       19
    I9(10)    R12       17
    I9(10)    R20       1
    I10(10)   OBJ       -179
    I10(10)   R0        179
    I10(10)   R3        6
    I10(10)   R5        14
    I10(10)   R6        8
    I10(10)   R7        6
    I10(10)   R9        8
    I10(10)   R10       4
    I10(10)   R11       10
    I10(10)   R12       6
    I10(10)   R20       1
    I11(11)   OBJ       -53
    I11(11)   R0        77
    I11(11)   R2        18
    I11(11)   R3        9
    I11(11)   R4        17
    I11(11)   R6        4
    I11(11)   R7        18
    I11(11)   R8        2
    I11(11)   R10       1
    I11(11)   R11       9
    I11(11)   R12       19
    I11(11)   R20       1
    MARKER    'MARKER'                 'INTEND'
    C12(10)   OBJ       8
    C12(10)   R0        -1
    C12(10)   R2        8
    C12(10)   R4        -1
    C12(10)   R6        5
    C12(10)   R7        4
    C12(10)   R8        2
    C12(10)   R15       16
    C12(10)   R16       4
    C12(10)   R17       7
    C12(10)   R18       7
    C13(15)   OBJ       -5
    C13(15)   R0        5
    C13(15)   R1        11
    C13(15)   R2        1
    C13(15)   R4        18
    C13(15)   R6        19
    C13(15)   R7        1
    C13(15)   R9        13
    C13(15)   R10       5
    C13(15)   R12       4
    C13(15)   R13       7
    C13(15)   R14       2
    C13(15)   R15       11
    C13(15)   R16       10
    C13(15)   R18       3
    C13(15)   R19       15
    C14(12)   OBJ       -3
    C14(12)   R0        9
    C14(12)   R5        6
    C14(12)   R6        12
    C14(12)   R7        18
    C14(12)   R8        12
    C14(12)   R10       19
    C14(12)   R14       9
    C14(12)   R15       7
    C14(12)   R16       17
    C14(12)   R17       13
    C14(12)   R18       14
    C14(12)   R19       6
    C15(11)   OBJ       -6
    C15(11)   R0        -1
    C15(11)   R4        6
    C15(11)   R7        7
    C15(11)   R8        2
    C15(11)   R9        6
    C15(11)   R10       12
    C15(11)   R12       18
    C15(11)   R13       5
    C15(11)   R17       16
    C15(11)   R18       18
    C15(11)   R19       4
    C16(13)   OBJ       4
    C16(13)   R0        -2
    C16(13)   R1        10
    C16(13)   R2        5
    C16(13)   R3        15
    C16(13)   R5        17
    C16(13)   R6        17
    C16(13)   R9        -1
    C16(13)   R10       8
    C16(13)   R12       19
    C16(13)   R14       9
    C16(13)   R15       -1
    C16(13)   R16       5
    C16(13)   R17       2
    C17(15)   OBJ       -6
    C17(15)   R0        9
    C17(15)   R1        13
    C17(15)   R2        15
    C17(15)   R3        14
    C17(15)   R4        8
    C17(15)   R7        13
    C17(15)   R8        5
    C17(15)   R10       6
    C17(15)   R12       19
    C17(15)   R13       11
    C17(15)   R14       17
    C17(15)   R16       13
    C17(15)   R17       6
    C17(15)   R18       16
    C17(15)   R19       5
    C18(13)   OBJ       -5
    C18(13)   R0        -2
    C18(13)   R1        16
    C18(13)   R2        -1
    C18(13)   R3        14
    C18(13)   R5        14
    C18(13)   R6        2
    C18(13)   R8        11
    C18(13)   R10       8
    C18(13)   R11       15
    C18(13)   R16       18
    C18(13)   R17       10
    C18(13)   R18       16
    C18(13)   R19       -1
    C19(13)   OBJ       -3
    C19(13)   R0        -5
    C19(13)   R1        18
    C19(13)   R3        1
    C19(13)   R4        3
    C19(13)   R5        6
    C19(13)   R6        10
    C19(13)   R7        9
    C19(13)   R9        17
    C19(13)   R11       9
    C19(13)   R14       9
    C19(13)   R16       11
    C19(13)   R17       14
    C19(13)   R19       9
    C20(1)    R1        1
    C21(1)    R2        1
    C22(1)    R3        1
    C23(1)    R4        1
    C24(1)    R5        1
    C25(1)    R6        1
    C26(1)    R7        1
    C27(1)    R8        1
    C28(1)    R9        1
    C29(1)    R10       1
    C30(1)    R11       1
    C31(1)    R12       1
    C32(1)    R13       1
    C33(1)    R14       1
    C34(1)    R15       1
    C35(1)    R16       1
    C36(1)    R17       1
    C37(1)    R18       1
    C38(1)    R19       1
    C39(1)    R20       1
RHS
    RHS1      R0        4.4687138227734863e+02
    RHS1      R1        55
    RHS1      R2        62
    RHS1      R3        97
    RHS1      R4        78
    RHS1      R5        50
    RHS1      R6        96
    RHS1      R7        93
    RHS1      R8        55
    RHS1      R9        86
    RHS1      R10       88
    RHS1      R11       57
    RHS1      R12       74
    RHS1      R13       89
    RHS1      R14       87
    RHS1      R15       61
    RHS1      R16       90
    RHS1      R17       67
    RHS1      R18       76
    RHS1      R19       60
    RHS1      R20       4
BOUNDS
 UP BND1      I0(8)     1
 UP BND1      I1(9)     1
 UP BND1      I2(13)    1
 UP BND1      I3(13)    1
 UP BND1      I4(9)     1
 UP BND1      I5(9)     1
 UP BND1      I6(9)     1
 UP BND1      I7(9)     1
 UP BND1      I8(8)     1
 UP BND1      I9(10)    1
 UP BND1      I10(10)   1
 UP BND1      I11(11)   1
ENDATA
